NAME : pr50.tsp.590627.tour
COMMENT : Length = 590627
COMMENT : Found by LKH [Keld Helsgaun] Thu Jun 15 01:16:15 2017
TYPE : TOUR
DIMENSION : 50
TOUR_SECTION
1
31
15
44
2
49
5
12
3
7
29
23
9
46
42
26
39
21
35
13
8
18
11
43
10
20
32
33
19
40
41
16
14
28
37
17
24
6
45
38
47
50
30
34
4
25
27
22
36
48
-1
EOF
